(set-info :source |printed by MathSAT|)
(declare-fun |.x{42}| () Int)
(declare-fun |.x{542}| () Int)
(declare-fun |.x{2}| () Int)
(declare-fun |.x{543}| () Int)
(declare-fun |.x{44}| () Int)
(declare-fun |.x{544}| () Int)
(declare-fun |.x{4}| () Int)
(declare-fun |.x{545}| () Int)
(declare-fun |.x{46}| () Int)
(declare-fun |.x{546}| () Int)
(declare-fun |.x{6}| () Int)
(declare-fun |.x{547}| () Int)
(declare-fun |.x{48}| () Int)
(declare-fun |.x{548}| () Int)
(declare-fun |.x{8}| () Int)
(declare-fun |.x{549}| () Int)
(declare-fun |.x{50}| () Int)
(declare-fun |.x{550}| () Int)
(declare-fun |.x{10}| () Int)
(declare-fun |.x{551}| () Int)
(declare-fun |.x{52}| () Int)
(declare-fun |.x{552}| () Int)
(declare-fun |.x{12}| () Int)
(declare-fun |.x{553}| () Int)
(declare-fun |.x{54}| () Int)
(declare-fun |.x{554}| () Int)
(declare-fun |.x{14}| () Int)
(declare-fun |.x{555}| () Int)
(declare-fun |.x{15}| () Int)
(declare-fun |.x{556}| () Int)
(declare-fun |.x{57}| () Int)
(declare-fun |.x{557}| () Int)
(declare-fun |.x{17}| () Int)
(declare-fun |.x{558}| () Int)
(declare-fun |.x{59}| () Int)
(declare-fun |.x{559}| () Int)
(declare-fun |.x{19}| () Int)
(declare-fun |.x{560}| () Int)
(declare-fun |.x{61}| () (Array Int Int))
(declare-fun |.x{561}| () (Array Int Int))
(declare-fun |.x{21}| () (Array Int Int))
(declare-fun |.x{562}| () (Array Int Int))
(declare-fun |.x{22}| () (Array Int (Array Int Int)))
(declare-fun |.x{563}| () (Array Int (Array Int Int)))
(declare-fun |.x{23}| () (Array Int (Array Int Int)))
(declare-fun |.x{564}| () (Array Int (Array Int Int)))
(declare-fun |.x{65}| () Int)
(declare-fun |.x{565}| () Int)
(declare-fun |.x{25}| () Int)
(declare-fun |.x{566}| () Int)
(declare-fun |.x{67}| () (Array Int Int))
(declare-fun |.x{567}| () (Array Int Int))
(declare-fun |.x{27}| () (Array Int Int))
(declare-fun |.x{568}| () (Array Int Int))
(declare-fun |.x{28}| () Int)
(declare-fun |.x{569}| () Int)
(declare-fun |.x{29}| () Int)
(declare-fun |.x{570}| () Int)
(declare-fun |.x{30}| () Int)
(declare-fun |.x{571}| () Int)
(declare-fun |.x{31}| () Int)
(declare-fun |.x{572}| () Int)
(declare-fun |.x{32}| () Int)
(declare-fun |.x{573}| () Int)
(declare-fun |.x{33}| () Int)
(declare-fun |.x{574}| () Int)
(declare-fun |.x{34}| () Int)
(declare-fun |.x{575}| () Int)
(declare-fun |.x{35}| () Int)
(declare-fun |.x{576}| () Int)
(declare-fun |.x{36}| () Int)
(declare-fun |.x{577}| () Int)
(declare-fun |.x{37}| () Int)
(declare-fun |.x{578}| () Int)
(declare-fun |.x{38}| () Int)
(declare-fun |.x{579}| () Int)
(declare-fun |.x{39}| () Int)
(declare-fun |.x{580}| () Int)
(declare-fun |.x{40}| () Int)
(declare-fun |.x{581}| () Int)
(declare-fun |.x{41}| () Bool)
(declare-fun |.x{500}| () Bool)
(declare-fun |.loc{3}| () Bool)
(declare-fun |.loc{5}| () Bool)
(declare-fun |.loc{4}| () Bool)
(declare-fun |.loc{6}| () Bool)
(declare-fun |.x{168}| () Int)
(declare-fun |.x{153}| () Int)
(declare-fun |.x{155}| () Int)
(declare-fun |.x{165}| () Int)
(declare-fun |.x{293}| () Int)
(declare-fun |.x{292}| () Int)
(define-fun .def_92 () Bool (! |.loc{4}| :next |.loc{6}|))
(define-fun .def_306 () Bool (not .def_92))
(define-fun .def_90 () Bool (! |.loc{3}| :next |.loc{5}|))
(define-fun .def_156 () Bool (not .def_90))
(define-fun .def_344 () Bool (and .def_156 .def_306))
(define-fun .def_56 () Int (! |.x{25}| :next |.x{566}|))
(define-fun .def_54 () Int (! |.x{65}| :next |.x{565}|))
(define-fun .def_330 () Bool (= .def_54 .def_56))
(define-fun .def_18 () Int (! |.x{6}| :next |.x{547}|))
(define-fun .def_16 () Int (! |.x{46}| :next |.x{546}|))
(define-fun .def_329 () Bool (= .def_16 .def_18))
(define-fun .def_331 () Bool (and .def_329 .def_330))
(define-fun .def_48 () (Array Int Int) (! |.x{21}| :next |.x{562}|))
(define-fun .def_46 () (Array Int Int) (! |.x{61}| :next |.x{561}|))
(define-fun .def_328 () Bool (= .def_46 .def_48))
(define-fun .def_332 () Bool (and .def_328 .def_331))
(define-fun .def_10 () Int (! |.x{2}| :next |.x{543}|))
(define-fun .def_8 () Int (! |.x{42}| :next |.x{542}|))
(define-fun .def_327 () Bool (= .def_8 .def_10))
(define-fun .def_333 () Bool (and .def_327 .def_332))
(define-fun .def_60 () (Array Int Int) (! |.x{27}| :next |.x{568}|))
(define-fun .def_58 () (Array Int Int) (! |.x{67}| :next |.x{567}|))
(define-fun .def_326 () Bool (= .def_58 .def_60))
(define-fun .def_334 () Bool (and .def_326 .def_333))
(define-fun .def_14 () Int (! |.x{4}| :next |.x{545}|))
(define-fun .def_12 () Int (! |.x{44}| :next |.x{544}|))
(define-fun .def_325 () Bool (= .def_12 .def_14))
(define-fun .def_335 () Bool (and .def_325 .def_334))
(define-fun .def_30 () Int (! |.x{12}| :next |.x{553}|))
(define-fun .def_28 () Int (! |.x{52}| :next |.x{552}|))
(define-fun .def_324 () Bool (= .def_28 .def_30))
(define-fun .def_336 () Bool (and .def_324 .def_335))
(define-fun .def_26 () Int (! |.x{10}| :next |.x{551}|))
(define-fun .def_24 () Int (! |.x{50}| :next |.x{550}|))
(define-fun .def_323 () Bool (= .def_24 .def_26))
(define-fun .def_337 () Bool (and .def_323 .def_336))
(define-fun .def_40 () Int (! |.x{17}| :next |.x{558}|))
(define-fun .def_38 () Int (! |.x{57}| :next |.x{557}|))
(define-fun .def_322 () Bool (= .def_38 .def_40))
(define-fun .def_338 () Bool (and .def_322 .def_337))
(define-fun .def_44 () Int (! |.x{19}| :next |.x{560}|))
(define-fun .def_42 () Int (! |.x{59}| :next |.x{559}|))
(define-fun .def_321 () Bool (= .def_42 .def_44))
(define-fun .def_339 () Bool (and .def_321 .def_338))
(define-fun .def_88 () Bool (! |.x{41}| :next |.x{500}|))
(define-fun .def_320 () Bool (not .def_88))
(define-fun .def_340 () Bool (and .def_320 .def_339))
(define-fun .def_52 () (Array Int (Array Int Int)) (! |.x{23}| :next |.x{564}|))
(define-fun .def_50 () (Array Int (Array Int Int)) (! |.x{22}| :next |.x{563}|))
(define-fun .def_319 () Bool (= .def_50 .def_52))
(define-fun .def_341 () Bool (and .def_319 .def_340))
(define-fun .def_34 () Int (! |.x{14}| :next |.x{555}|))
(define-fun .def_32 () Int (! |.x{54}| :next |.x{554}|))
(define-fun .def_318 () Bool (= .def_32 .def_34))
(define-fun .def_342 () Bool (and .def_318 .def_341))
(define-fun .def_22 () Int (! |.x{8}| :next |.x{549}|))
(define-fun .def_20 () Int (! |.x{48}| :next |.x{548}|))
(define-fun .def_317 () Bool (= .def_20 .def_22))
(define-fun .def_343 () Bool (and .def_317 .def_342))
(define-fun .def_345 () Bool (! (and .def_343 .def_344) :init true))
(define-fun .def_314 () Bool (= .def_60 |.x{568}|))
(define-fun .def_312 () Bool (= .def_56 |.x{566}|))
(define-fun .def_310 () Bool (= .def_52 |.x{564}|))
(define-fun .def_308 () Bool (= .def_48 |.x{562}|))
(define-fun .def_304 () Bool (= .def_44 |.x{560}|))
(define-fun .def_302 () Bool (= .def_40 |.x{558}|))
(define-fun .def_36 () Int (! |.x{15}| :next |.x{556}|))
(define-fun .def_300 () Bool (= .def_36 |.x{556}|))
(define-fun .def_298 () Bool (= .def_34 |.x{555}|))
(define-fun .def_296 () Bool (= .def_30 |.x{553}|))
(define-fun .def_294 () Bool (= .def_26 |.x{551}|))
(define-fun .def_292 () Bool (= .def_22 |.x{549}|))
(define-fun .def_290 () Bool (= .def_18 |.x{547}|))
(define-fun .def_288 () Bool (= .def_10 |.x{543}|))
(define-fun .def_287 () Bool (= .def_14 |.x{545}|))
(define-fun .def_289 () Bool (and .def_287 .def_288))
(define-fun .def_291 () Bool (and .def_289 .def_290))
(define-fun .def_293 () Bool (and .def_291 .def_292))
(define-fun .def_295 () Bool (and .def_293 .def_294))
(define-fun .def_297 () Bool (and .def_295 .def_296))
(define-fun .def_299 () Bool (and .def_297 .def_298))
(define-fun .def_301 () Bool (and .def_299 .def_300))
(define-fun .def_303 () Bool (and .def_301 .def_302))
(define-fun .def_305 () Bool (and .def_303 .def_304))
(define-fun .def_307 () Bool (and .def_305 .def_306))
(define-fun .def_309 () Bool (and .def_307 .def_308))
(define-fun .def_311 () Bool (and .def_309 .def_310))
(define-fun .def_313 () Bool (and .def_311 .def_312))
(define-fun .def_315 () Bool (and .def_313 .def_314))
(define-fun .def_163 () Bool (= |.x{293}| |.x{292}|))
(define-fun .def_277 () Bool (not .def_163))
(define-fun .def_278 () Bool (or .def_88 .def_277))
(define-fun .def_205 () Bool (= |.x{569}| |.x{571}|))
(define-fun .def_203 () Bool (= |.x{577}| |.x{581}|))
(define-fun .def_199 () (Array Int Int) (select |.x{563}| |.x{577}|))
(define-fun .def_200 () Int (select .def_199 |.x{573}|))
(define-fun .def_201 () Bool (= |.x{292}| .def_200))
(define-fun .def_195 () (Array Int Int) (select |.x{563}| |.x{570}|))
(define-fun .def_196 () Int (select .def_195 |.x{571}|))
(define-fun .def_197 () Bool (= |.x{293}| .def_196))
(define-fun .def_192 () Bool (= |.x{570}| |.x{580}|))
(define-fun .def_188 () Bool (= |.x{573}| |.x{574}|))
(define-fun .def_184 () Bool (= |.x{559}| |.x{574}|))
(define-fun .def_183 () Bool (= |.x{550}| |.x{581}|))
(define-fun .def_185 () Bool (and .def_183 .def_184))
(define-fun .def_182 () Bool (= |.x{542}| |.x{565}|))
(define-fun .def_186 () Bool (and .def_182 .def_185))
(define-fun .def_181 () Bool (= |.x{565}| |.x{569}|))
(define-fun .def_187 () Bool (and .def_181 .def_186))
(define-fun .def_189 () Bool (and .def_187 .def_188))
(define-fun .def_180 () Bool (= |.x{546}| |.x{557}|))
(define-fun .def_190 () Bool (and .def_180 .def_189))
(define-fun .def_179 () Bool (= |.x{544}| |.x{559}|))
(define-fun .def_191 () Bool (and .def_179 .def_190))
(define-fun .def_193 () Bool (and .def_191 .def_192))
(define-fun .def_178 () Bool (= |.x{546}| |.x{580}|))
(define-fun .def_194 () Bool (and .def_178 .def_193))
(define-fun .def_198 () Bool (and .def_194 .def_197))
(define-fun .def_202 () Bool (and .def_198 .def_201))
(define-fun .def_204 () Bool (and .def_202 .def_203))
(define-fun .def_206 () Bool (and .def_204 .def_205))
(define-fun .def_127 () (Array Int Int) (select .def_50 |.x{546}|))
(define-fun .def_167 () (Array Int Int) (store .def_127 |.x{565}| 0))
(define-fun .def_168 () (Array Int (Array Int Int)) (store .def_50 |.x{546}| .def_167))
(define-fun .def_169 () (Array Int Int) (select .def_168 |.x{550}|))
(define-fun .def_170 () (Array Int Int) (store .def_169 |.x{559}| 1))
(define-fun .def_171 () (Array Int (Array Int Int)) (store .def_168 |.x{550}| .def_170))
(define-fun .def_172 () (Array Int Int) (select .def_171 |.x{554}|))
(define-fun .def_173 () Int (select .def_172 |.x{544}|))
(define-fun .def_174 () (Array Int Int) (select .def_171 |.x{557}|))
(define-fun .def_175 () (Array Int Int) (store .def_174 |.x{542}| .def_173))
(define-fun .def_176 () (Array Int (Array Int Int)) (store .def_171 |.x{557}| .def_175))
(define-fun .def_177 () Bool (= |.x{563}| .def_176))
(define-fun .def_207 () Bool (and .def_177 .def_206))
(define-fun .def_166 () Bool (= |.x{550}| |.x{554}|))
(define-fun .def_208 () Bool (and .def_166 .def_207))
(define-fun .def_275 () Bool (or .def_88 .def_208))
(define-fun .def_117 () (Array Int Int) (store .def_46 0 0))
(define-fun .def_118 () (Array Int Int) (store .def_117 |.x{546}| 1))
(define-fun .def_150 () Int (select .def_118 |.x{550}|))
(define-fun .def_151 () Bool (= .def_150 0))
(define-fun .def_147 () Bool (= |.x{546}| 0))
(define-fun .def_148 () Bool (not .def_147))
(define-fun .def_145 () Bool (= |.x{559}| 0))
(define-fun .def_142 () Int (select .def_117 |.x{546}|))
(define-fun .def_143 () Bool (= .def_142 0))
(define-fun .def_140 () Bool (= |.x{548}| 0))
(define-fun .def_137 () Bool (= |.x{550}| 0))
(define-fun .def_138 () Bool (not .def_137))
(define-fun .def_135 () Bool (= |.x{165}| 0))
(define-fun .def_132 () Bool (= |.x{155}| 0))
(define-fun .def_128 () Int (select .def_127 |.x{565}|))
(define-fun .def_129 () Bool (= .def_128 0))
(define-fun .def_125 () Bool (= |.x{565}| 0))
(define-fun .def_122 () Bool (<= .def_36 |.x{546}|))
(define-fun .def_123 () Bool (not .def_122))
(define-fun .def_119 () (Array Int Int) (store .def_118 |.x{550}| 1))
(define-fun .def_120 () Bool (= |.x{561}| .def_119))
(define-fun .def_114 () Bool (= |.x{552}| 0))
(define-fun .def_110 () (Array Int Int) (select .def_50 |.x{550}|))
(define-fun .def_111 () Int (select .def_110 |.x{559}|))
(define-fun .def_112 () Bool (= .def_111 0))
(define-fun .def_108 () Bool (= |.x{153}| 0))
(define-fun .def_103 () (Array Int Int) (store .def_58 |.x{546}| 4))
(define-fun .def_104 () (Array Int Int) (store .def_103 |.x{550}| 4))
(define-fun .def_105 () Bool (= |.x{567}| .def_104))
(define-fun .def_100 () Bool (= |.x{168}| 0))
(define-fun .def_96 () Bool (<= .def_36 |.x{550}|))
(define-fun .def_97 () Bool (not .def_96))
(define-fun .def_101 () Bool (and .def_97 .def_100))
(define-fun .def_106 () Bool (and .def_101 .def_105))
(define-fun .def_109 () Bool (and .def_106 .def_108))
(define-fun .def_113 () Bool (and .def_109 .def_112))
(define-fun .def_115 () Bool (and .def_113 .def_114))
(define-fun .def_121 () Bool (and .def_115 .def_120))
(define-fun .def_124 () Bool (and .def_121 .def_123))
(define-fun .def_126 () Bool (and .def_124 .def_125))
(define-fun .def_130 () Bool (and .def_126 .def_129))
(define-fun .def_133 () Bool (and .def_130 .def_132))
(define-fun .def_136 () Bool (and .def_133 .def_135))
(define-fun .def_139 () Bool (and .def_136 .def_138))
(define-fun .def_141 () Bool (and .def_139 .def_140))
(define-fun .def_144 () Bool (and .def_141 .def_143))
(define-fun .def_146 () Bool (and .def_144 .def_145))
(define-fun .def_149 () Bool (and .def_146 .def_148))
(define-fun .def_152 () Bool (and .def_149 .def_151))
(define-fun .def_153 () Bool (or .def_88 .def_152))
(define-fun .def_276 () Bool (and .def_153 .def_275))
(define-fun .def_279 () Bool (and .def_276 .def_278))
(define-fun .def_280 () Bool (and |.x{500}| .def_279))
(define-fun .def_281 () Bool (and .def_156 .def_280))
(define-fun .def_68 () Int (! |.x{31}| :next |.x{572}|))
(define-fun .def_159 () Bool (= .def_68 |.x{572}|))
(define-fun .def_282 () Bool (and .def_159 .def_281))
(define-fun .def_272 () Bool (= |.x{578}| 0))
(define-fun .def_273 () Bool (or .def_88 .def_272))
(define-fun .def_270 () Bool (= .def_8 |.x{542}|))
(define-fun .def_268 () Bool (= .def_12 |.x{544}|))
(define-fun .def_266 () Bool (= .def_16 |.x{546}|))
(define-fun .def_264 () Bool (= .def_20 |.x{548}|))
(define-fun .def_262 () Bool (= .def_24 |.x{550}|))
(define-fun .def_260 () Bool (= .def_28 |.x{552}|))
(define-fun .def_258 () Bool (= .def_32 |.x{554}|))
(define-fun .def_256 () Bool (= .def_38 |.x{557}|))
(define-fun .def_254 () Bool (= .def_42 |.x{559}|))
(define-fun .def_252 () Bool (= .def_46 |.x{561}|))
(define-fun .def_250 () Bool (= .def_50 |.x{563}|))
(define-fun .def_248 () Bool (= .def_54 |.x{565}|))
(define-fun .def_246 () Bool (= .def_58 |.x{567}|))
(define-fun .def_62 () Int (! |.x{28}| :next |.x{569}|))
(define-fun .def_243 () Bool (= .def_62 |.x{569}|))
(define-fun .def_64 () Int (! |.x{29}| :next |.x{570}|))
(define-fun .def_241 () Bool (= .def_64 |.x{570}|))
(define-fun .def_66 () Int (! |.x{30}| :next |.x{571}|))
(define-fun .def_239 () Bool (= .def_66 |.x{571}|))
(define-fun .def_70 () Int (! |.x{32}| :next |.x{573}|))
(define-fun .def_237 () Bool (= .def_70 |.x{573}|))
(define-fun .def_72 () Int (! |.x{33}| :next |.x{574}|))
(define-fun .def_235 () Bool (= .def_72 |.x{574}|))
(define-fun .def_74 () Int (! |.x{34}| :next |.x{575}|))
(define-fun .def_233 () Bool (= .def_74 |.x{575}|))
(define-fun .def_76 () Int (! |.x{35}| :next |.x{576}|))
(define-fun .def_231 () Bool (= .def_76 |.x{576}|))
(define-fun .def_78 () Int (! |.x{36}| :next |.x{577}|))
(define-fun .def_229 () Bool (= .def_78 |.x{577}|))
(define-fun .def_82 () Int (! |.x{38}| :next |.x{579}|))
(define-fun .def_227 () Bool (= .def_82 |.x{579}|))
(define-fun .def_84 () Int (! |.x{39}| :next |.x{580}|))
(define-fun .def_225 () Bool (= .def_84 |.x{580}|))
(define-fun .def_86 () Int (! |.x{40}| :next |.x{581}|))
(define-fun .def_223 () Bool (= .def_86 |.x{581}|))
(define-fun .def_220 () Bool (= |.x{572}| |.x{578}|))
(define-fun .def_221 () Bool (or |.x{500}| .def_220))
(define-fun .def_212 () Bool (= .def_88 |.x{500}|))
(define-fun .def_222 () Bool (and .def_212 .def_221))
(define-fun .def_224 () Bool (and .def_222 .def_223))
(define-fun .def_226 () Bool (and .def_224 .def_225))
(define-fun .def_228 () Bool (and .def_226 .def_227))
(define-fun .def_230 () Bool (and .def_228 .def_229))
(define-fun .def_232 () Bool (and .def_230 .def_231))
(define-fun .def_234 () Bool (and .def_232 .def_233))
(define-fun .def_236 () Bool (and .def_234 .def_235))
(define-fun .def_238 () Bool (and .def_236 .def_237))
(define-fun .def_240 () Bool (and .def_238 .def_239))
(define-fun .def_242 () Bool (and .def_240 .def_241))
(define-fun .def_244 () Bool (and .def_242 .def_243))
(define-fun .def_245 () Bool (and .def_90 .def_244))
(define-fun .def_247 () Bool (and .def_245 .def_246))
(define-fun .def_249 () Bool (and .def_247 .def_248))
(define-fun .def_251 () Bool (and .def_249 .def_250))
(define-fun .def_253 () Bool (and .def_251 .def_252))
(define-fun .def_255 () Bool (and .def_253 .def_254))
(define-fun .def_257 () Bool (and .def_255 .def_256))
(define-fun .def_259 () Bool (and .def_257 .def_258))
(define-fun .def_261 () Bool (and .def_259 .def_260))
(define-fun .def_263 () Bool (and .def_261 .def_262))
(define-fun .def_265 () Bool (and .def_263 .def_264))
(define-fun .def_267 () Bool (and .def_265 .def_266))
(define-fun .def_269 () Bool (and .def_267 .def_268))
(define-fun .def_271 () Bool (and .def_269 .def_270))
(define-fun .def_274 () Bool (and .def_271 .def_273))
(define-fun .def_283 () Bool (or .def_274 .def_282))
(define-fun .def_217 () Bool (not |.loc{5}|))
(define-fun .def_218 () Bool (and |.loc{6}| .def_217))
(define-fun .def_219 () Bool (and .def_217 .def_218))
(define-fun .def_284 () Bool (and .def_219 .def_283))
(define-fun .def_209 () Bool (or |.x{500}| .def_208))
(define-fun .def_164 () Bool (or |.x{500}| .def_163))
(define-fun .def_94 () Bool (not |.loc{6}|))
(define-fun .def_165 () Bool (and .def_94 .def_164))
(define-fun .def_210 () Bool (and .def_165 .def_209))
(define-fun .def_211 () Bool (and .def_153 .def_210))
(define-fun .def_213 () Bool (and .def_211 .def_212))
(define-fun .def_214 () Bool (and .def_156 .def_213))
(define-fun .def_215 () Bool (and |.loc{5}| .def_214))
(define-fun .def_216 () Bool (and .def_159 .def_215))
(define-fun .def_285 () Bool (or .def_216 .def_284))
(define-fun .def_95 () Bool (and .def_88 .def_94))
(define-fun .def_154 () Bool (and .def_95 .def_153))
(define-fun .def_155 () Bool (and |.x{500}| .def_154))
(define-fun .def_157 () Bool (and .def_155 .def_156))
(define-fun .def_158 () Bool (and |.loc{5}| .def_157))
(define-fun .def_160 () Bool (and .def_158 .def_159))
(define-fun .def_286 () Bool (or .def_160 .def_285))
(define-fun .def_316 () Bool (! (and .def_286 .def_315) :trans true))
(define-fun .def_80 () Int (! |.x{37}| :next |.x{578}|))
(define-fun .def_346 () Bool (and .def_92 .def_156))
(define-fun .def_347 () Bool (and .def_88 .def_346))
(define-fun .def_348 () Bool (! (not .def_347) :invar-property 0))
(assert true)
